0 56 
1 61 
2 61 
3 61 
4 59 
5 60 
6 60 
7 58 
8 57 
9 55 
10 54 
11 52 
12 51 
13 50 
14 50 
15 48 
16 47 
17 47 
18 44 
19 46 
20 43 
21 43 
22 43 
23 44 
24 44 
25 40 
26 38 
27 35 
28 38 
29 33 
30 32 
31 30 
32 27 
33 27 
34 25 
35 24 
36 24 
37 25 
38 21 
39 20 
40 21 
41 20 
42 20 
43 18 
44 16 
45 13 
46 15 
47 16 
48 15 
49 16 
50 15 
51 14 
52 16 
53 14 
54 12 
55 11 
56 11 
57 9 
58 10 
59 8 
60 10 
61 10 
62 9 
63 7 
64 5 
65 5 
66 4 
67 4 
68 3 
69 3 
70 2 
71 0 
72 0 

